         **** ROTINA COMPUTACIONAL – EXERCÍCIO  RESOLVIDO COM O PROGRAMA ****

ÚLTIMO DIGITO MATRÍCULA:   0

Tensor de deformação:  
[[0.000633 0.000167 0.0001  ]
 [0.000167 0.0004   0.000267]
 [0.0001   0.000267 0.000567]]

Tensões principais:
s1 = 17.741305
s2 = 6.575889
s3 = -3.317194
Máxima tensão de cisalhamento:  5.582708

Coeficiente de segurança pelo critério de Tresca:  1.074747

Coeficiente de segurança pelo critério de von Mises:  0.149071
